30
90
10
72
95
23
38
22
40
44
60
31
84
0 7
0 11
0 16
0 18
0 28
1 5
1 10
1 12
1 25
1 26
1 29
2 16
2 21
2 23
2 27
3 10
3 11
3 12
3 22
4 6
4 8
4 9
4 10
4 20
4 21
4 23
4 24
5 7
5 11
5 21
5 23
5 24
5 25
6 7
6 17
6 19
6 26
6 27
7 8
7 11
7 20
7 29
8 9
8 10
8 15
8 20
8 23
9 12
10 15
10 16
10 18
10 20
10 24
10 28
11 17
11 23
11 29
12 20
12 22
13 21
13 23
13 27
14 18
14 23
14 24
14 26
14 28
15 19
15 20
15 24
16 19
16 21
16 26
16 29
17 20
17 24
17 27
18 23
18 24
18 28
19 28
20 26
20 28
21 22
21 27
23 27
23 28
25 27
26 27
26 29
20 25 21
9 26 24
12 19 29
3 17 1
14 10 8
6 15 28
5 4 11
7 16 18
2 0 22
23 13 27
